n_res = 4;
rc = [ 0, 0, 0, 0 ];
n_tasks = 30;
d = [ 4, 2, 6, 9, 4, 6, 2, 2, 8, 9, 7, 7, 9, 9, 10, 5, 5, 4, 7, 4, 9, 6, 2, 2, 5, 2, 3, 4, 8, 8 ];
rr = [| 0, 0, 0, 0, 0, 0, 0, 0, 0, 0, 0, 0, 0, 0, 0, 0, 0, 0, 0, 0, 0, 0, 0, 0, 0, 0, 0, 0, 0, 0
      | 0, 0, 0, 0, 0, 0, 0, 0, 0, 0, 0, 0, 0, 0, 0, 0, 0, 0, 0, 0, 0, 0, 0, 0, 0, 0, 0, 0, 0, 0
      | 0, 0, 0, 0, 0, 0, 0, 0, 0, 0, 0, 0, 0, 0, 0, 0, 0, 0, 0, 0, 0, 0, 0, 0, 0, 0, 0, 0, 0, 0
      | 0, 0, 0, 0, 0, 0, 0, 0, 0, 0, 0, 0, 0, 0, 0, 0, 0, 0, 0, 0, 0, 0, 0, 0, 0, 0, 0, 0, 0, 0 |];
suc = [ { 8, 10, 17 },
       { 6, 16, 22 },
       { 4, 5, 6 },
       { 7, 9, 15 },
       { 12, 14, 24 },
       { 12, 19, 29 },
       { 18, 20, 23 },
       { 9, 15 },
       { 11, 13, 16 },
       { 15, 16, 23 },
       { 14, 22, 23 },
       { 17 },
       { 19, 20, 29 },
       { 18, 19, 20 },
       { 22, 27 },
       { 21, 26, 30 },
       { 18, 21, 25 },
       { 26 },
       { 21, 27 },
       { 25 },
       { 28 },
       { 24 },
       { 24, 25 },
       { 26, 29, 30 },
       { 27 },
       { 28 },
       { 28, 30 },
       {  },
       {  },
       {  } ];
